data/negate.col
p[1]
p[2]
one
