data/negate.log

Substitution eliminates 3 variables.
Adjusted problem:
3 variables, all nonlinear
3 constraints, all nonlinear; 7 nonzeros
	3 equality constraints
0 objectives.

ignore this line 7
@@@ Problem statistics
constraints: 3 variables: 3 nonzeros: 7
Variable vector:
0.6092090562543065
0.1898730530200304
1.6875682077960734

Residual vector:
0.04528265962767897
-0.8372563003879272
-1.160318248167978

gjh: "negate.gjh" written.  Execute
 
	include "negate.gjh"
	remove "negate.gjh";
