data/negate.sol
 
Ipopt 3.11.9: Optimal Solution Found

Options
9
0
2
0
3
20140524
0
1
0
1
3
3
3
3
0
0
0
0.8872045157371093
0.6267544694440679
1
objno 0 0
suffix 4 0 13 0 0
ipopt_zU_out
suffix 4 0 13 0 0
ipopt_zL_out
